data/lp_files/pEFS/62_6.lp
\ Model foo
\ LP format - for model browsing. Use MPS format to capture full model detail.
Minimize
  z
Subject To
 allocateEach[1]: x[1,1] + x[2,1] + x[3,1] + x[4,1] = 1
 allocateEach[2]: x[1,2] + x[2,2] + x[3,2] + x[4,2] = 1
 allocateAllCash: cashProportion[1] + cashProportion[2] + cashProportion[3]
   + cashProportion[4] = 1
 findWorstP[1,2]: z + 0.283667824976952 cashProportion[1]
   - 0.283667824976952 cashProportion[2] + 0.2621799872349479 x[1,1]
   + 0.4541521877881002 x[1,2] - 0.2621799872349479 x[2,1]
   - 0.4541521877881002 x[2,2] >= 0
 findWorstP[1,3]: z + 0.283667824976952 cashProportion[1]
   - 0.283667824976952 cashProportion[3] + 0.2621799872349479 x[1,1]
   + 0.4541521877881002 x[1,2] - 0.2621799872349479 x[3,1]
   - 0.4541521877881002 x[3,2] >= 0
 findWorstP[1,4]: z + 0.283667824976952 cashProportion[1]
   - 0.283667824976952 cashProportion[4] + 0.2621799872349479 x[1,1]
   + 0.4541521877881002 x[1,2] - 0.2621799872349479 x[4,1]
   - 0.4541521877881002 x[4,2] >= 0
 findWorstP[2,1]: z - 0.2844545583842981 cashProportion[1]
   + 0.2844545583842981 cashProportion[2] - 0.2730052624093301 x[1,1]
   - 0.4425401792063717 x[1,2] + 0.2730052624093301 x[2,1]
   + 0.4425401792063717 x[2,2] >= 0
 findWorstP[2,3]: z + 0.2844545583842981 cashProportion[2]
   - 0.2844545583842981 cashProportion[3] + 0.2730052624093301 x[2,1]
   + 0.4425401792063717 x[2,2] - 0.2730052624093301 x[3,1]
   - 0.4425401792063717 x[3,2] >= 0
 findWorstP[2,4]: z + 0.2844545583842981 cashProportion[2]
   - 0.2844545583842981 cashProportion[4] + 0.2730052624093301 x[2,1]
   + 0.4425401792063717 x[2,2] - 0.2730052624093301 x[4,1]
   - 0.4425401792063717 x[4,2] >= 0
 findWorstP[3,1]: z - 0.2439768222018908 cashProportion[1]
   + 0.2439768222018908 cashProportion[3] - 0.3859713327233913 x[1,1]
   - 0.3700518450747179 x[1,2] + 0.3859713327233913 x[3,1]
   + 0.3700518450747179 x[3,2] >= 0
 findWorstP[3,2]: z - 0.2439768222018908 cashProportion[2]
   + 0.2439768222018908 cashProportion[3] - 0.3859713327233913 x[2,1]
   - 0.3700518450747179 x[2,2] + 0.3859713327233913 x[3,1]
   + 0.3700518450747179 x[3,2] >= 0
 findWorstP[3,4]: z + 0.2439768222018908 cashProportion[3]
   - 0.2439768222018908 cashProportion[4] + 0.3859713327233913 x[3,1]
   + 0.3700518450747179 x[3,2] - 0.3859713327233913 x[4,1]
   - 0.3700518450747179 x[4,2] >= 0
 findWorstP[4,1]: z - 0.2382796211354024 cashProportion[1]
   + 0.2382796211354024 cashProportion[4] - 0.3754691130041103 x[1,1]
   - 0.3862512658604872 x[1,2] + 0.3754691130041103 x[4,1]
   + 0.3862512658604872 x[4,2] >= 0
 findWorstP[4,2]: z - 0.2382796211354024 cashProportion[2]
   + 0.2382796211354024 cashProportion[4] - 0.3754691130041103 x[2,1]
   - 0.3862512658604872 x[2,2] + 0.3754691130041103 x[4,1]
   + 0.3862512658604872 x[4,2] >= 0
 findWorstP[4,3]: z - 0.2382796211354024 cashProportion[3]
   + 0.2382796211354024 cashProportion[4] - 0.3754691130041103 x[3,1]
   - 0.3862512658604872 x[3,2] + 0.3754691130041103 x[4,1]
   + 0.3862512658604872 x[4,2] >= 0
Bounds
 z <= 1
 -infinity <= cashProportion[1] <= 1
 -infinity <= cashProportion[2] <= 1
 -infinity <= cashProportion[3] <= 1
 -infinity <= cashProportion[4] <= 1
Binaries
 x[1,1] x[1,2] x[2,1] x[2,2] x[3,1] x[3,2] x[4,1] x[4,2]
End
