data/mps_files/pEFS/62_6.mps
NAME foo
ROWS
 N  OBJ
 E  allocateEach[1]
 E  allocateEach[2]
 E  allocateAllCash
 G  findWorstP[1,2]
 G  findWorstP[1,3]
 G  findWorstP[1,4]
 G  findWorstP[2,1]
 G  findWorstP[2,3]
 G  findWorstP[2,4]
 G  findWorstP[3,1]
 G  findWorstP[3,2]
 G  findWorstP[3,4]
 G  findWorstP[4,1]
 G  findWorstP[4,2]
 G  findWorstP[4,3]
COLUMNS
    z         OBJ       1
    z         findWorstP[1,2]  1
    z         findWorstP[1,3]  1
    z         findWorstP[1,4]  1
    z         findWorstP[2,1]  1
    z         findWorstP[2,3]  1
    z         findWorstP[2,4]  1
    z         findWorstP[3,1]  1
    z         findWorstP[3,2]  1
    z         findWorstP[3,4]  1
    z         findWorstP[4,1]  1
    z         findWorstP[4,2]  1
    z         findWorstP[4,3]  1
    cashProportion[1]  allocateAllCash  1
    cashProportion[1]  findWorstP[1,2]  2.8366782497695203e-01
    cashProportion[1]  findWorstP[1,3]  2.8366782497695203e-01
    cashProportion[1]  findWorstP[1,4]  2.8366782497695203e-01
    cashProportion[1]  findWorstP[2,1]  -2.8445455838429806e-01
    cashProportion[1]  findWorstP[3,1]  -2.4397682220189082e-01
    cashProportion[1]  findWorstP[4,1]  -2.3827962113540241e-01
    cashProportion[2]  allocateAllCash  1
    cashProportion[2]  findWorstP[1,2]  -2.8366782497695203e-01
    cashProportion[2]  findWorstP[2,1]  2.8445455838429806e-01
    cashProportion[2]  findWorstP[2,3]  2.8445455838429806e-01
    cashProportion[2]  findWorstP[2,4]  2.8445455838429806e-01
    cashProportion[2]  findWorstP[3,2]  -2.4397682220189082e-01
    cashProportion[2]  findWorstP[4,2]  -2.3827962113540241e-01
    cashProportion[3]  allocateAllCash  1
    cashProportion[3]  findWorstP[1,3]  -2.8366782497695203e-01
    cashProportion[3]  findWorstP[2,3]  -2.8445455838429806e-01
    cashProportion[3]  findWorstP[3,1]  2.4397682220189082e-01
    cashProportion[3]  findWorstP[3,2]  2.4397682220189082e-01
    cashProportion[3]  findWorstP[3,4]  2.4397682220189082e-01
    cashProportion[3]  findWorstP[4,3]  -2.3827962113540241e-01
    cashProportion[4]  allocateAllCash  1
    cashProportion[4]  findWorstP[1,4]  -2.8366782497695203e-01
    cashProportion[4]  findWorstP[2,4]  -2.8445455838429806e-01
    cashProportion[4]  findWorstP[3,4]  -2.4397682220189082e-01
    cashProportion[4]  findWorstP[4,1]  2.3827962113540241e-01
    cashProportion[4]  findWorstP[4,2]  2.3827962113540241e-01
    cashProportion[4]  findWorstP[4,3]  2.3827962113540241e-01
    MARKER    'MARKER'                 'INTORG'
    x[1,1]    allocateEach[1]  1
    x[1,1]    findWorstP[1,2]  2.6217998723494790e-01
    x[1,1]    findWorstP[1,3]  2.6217998723494790e-01
    x[1,1]    findWorstP[1,4]  2.6217998723494790e-01
    x[1,1]    findWorstP[2,1]  -2.7300526240933010e-01
    x[1,1]    findWorstP[3,1]  -3.8597133272339129e-01
    x[1,1]    findWorstP[4,1]  -3.7546911300411029e-01
    x[1,2]    allocateEach[2]  1
    x[1,2]    findWorstP[1,2]  4.5415218778810018e-01
    x[1,2]    findWorstP[1,3]  4.5415218778810018e-01
    x[1,2]    findWorstP[1,4]  4.5415218778810018e-01
    x[1,2]    findWorstP[2,1]  -4.4254017920637168e-01
    x[1,2]    findWorstP[3,1]  -3.7005184507471789e-01
    x[1,2]    findWorstP[4,1]  -3.8625126586048725e-01
    x[2,1]    allocateEach[1]  1
    x[2,1]    findWorstP[1,2]  -2.6217998723494790e-01
    x[2,1]    findWorstP[2,1]  2.7300526240933010e-01
    x[2,1]    findWorstP[2,3]  2.7300526240933010e-01
    x[2,1]    findWorstP[2,4]  2.7300526240933010e-01
    x[2,1]    findWorstP[3,2]  -3.8597133272339129e-01
    x[2,1]    findWorstP[4,2]  -3.7546911300411029e-01
    x[2,2]    allocateEach[2]  1
    x[2,2]    findWorstP[1,2]  -4.5415218778810018e-01
    x[2,2]    findWorstP[2,1]  4.4254017920637168e-01
    x[2,2]    findWorstP[2,3]  4.4254017920637168e-01
    x[2,2]    findWorstP[2,4]  4.4254017920637168e-01
    x[2,2]    findWorstP[3,2]  -3.7005184507471789e-01
    x[2,2]    findWorstP[4,2]  -3.8625126586048725e-01
    x[3,1]    allocateEach[1]  1
    x[3,1]    findWorstP[1,3]  -2.6217998723494790e-01
    x[3,1]    findWorstP[2,3]  -2.7300526240933010e-01
    x[3,1]    findWorstP[3,1]  3.8597133272339129e-01
    x[3,1]    findWorstP[3,2]  3.8597133272339129e-01
    x[3,1]    findWorstP[3,4]  3.8597133272339129e-01
    x[3,1]    findWorstP[4,3]  -3.7546911300411029e-01
    x[3,2]    allocateEach[2]  1
    x[3,2]    findWorstP[1,3]  -4.5415218778810018e-01
    x[3,2]    findWorstP[2,3]  -4.4254017920637168e-01
    x[3,2]    findWorstP[3,1]  3.7005184507471789e-01
    x[3,2]    findWorstP[3,2]  3.7005184507471789e-01
    x[3,2]    findWorstP[3,4]  3.7005184507471789e-01
    x[3,2]    findWorstP[4,3]  -3.8625126586048725e-01
    x[4,1]    allocateEach[1]  1
    x[4,1]    findWorstP[1,4]  -2.6217998723494790e-01
    x[4,1]    findWorstP[2,4]  -2.7300526240933010e-01
    x[4,1]    findWorstP[3,4]  -3.8597133272339129e-01
    x[4,1]    findWorstP[4,1]  3.7546911300411029e-01
    x[4,1]    findWorstP[4,2]  3.7546911300411029e-01
    x[4,1]    findWorstP[4,3]  3.7546911300411029e-01
    x[4,2]    allocateEach[2]  1
    x[4,2]    findWorstP[1,4]  -4.5415218778810018e-01
    x[4,2]    findWorstP[2,4]  -4.4254017920637168e-01
    x[4,2]    findWorstP[3,4]  -3.7005184507471789e-01
    x[4,2]    findWorstP[4,1]  3.8625126586048725e-01
    x[4,2]    findWorstP[4,2]  3.8625126586048725e-01
    x[4,2]    findWorstP[4,3]  3.8625126586048725e-01
    MARKER    'MARKER'                 'INTEND'
RHS
    RHS1      allocateEach[1]  1
    RHS1      allocateEach[2]  1
    RHS1      allocateAllCash  1
BOUNDS
 UP BND1      z         1
 MI BND1      cashProportion[1]
 UP BND1      cashProportion[1]  1
 MI BND1      cashProportion[2]
 UP BND1      cashProportion[2]  1
 MI BND1      cashProportion[3]
 UP BND1      cashProportion[3]  1
 MI BND1      cashProportion[4]
 UP BND1      cashProportion[4]  1
 BV BND1      x[1,1]  
 BV BND1      x[1,2]  
 BV BND1      x[2,1]  
 BV BND1      x[2,2]  
 BV BND1      x[3,1]  
 BV BND1      x[3,2]  
 BV BND1      x[4,1]  
 BV BND1      x[4,2]  
ENDATA
